# Objective value = 2.8755799876477231e+03
I_0_0 621
I_0_1 6.2099999936079462e+02
I_0_2 7.7399999996004965e+02
I_0_3 1.0080000004893916e+03
I_1_0 38
I_1_1 3.8000000189764080e+01
I_1_2 1.9000000189764084e+01
I_1_3 -1.8976408106330185e-07
I_2_0 94
I_2_1 94
I_2_2 47
I_2_3 0
I_3_0 144
I_3_1 144
I_3_2 72
I_3_3 0
I_4_0 81
I_4_1 81
I_4_2 81
I_4_3 0
I_5_0 30
I_5_1 3.0000000449441245e+01
I_5_2 1.4999999850186251e+01
I_5_3 -2.99627498385219e-07
q_1_0_0 1.8999999240943673e+01
q_1_0_1 0
q_1_0_2 -3.7952816462127688e-07
q_1_1_0 0
q_1_1_1 0
q_1_1_2 0
q_1_2_0 9.48820411553194e-07
q_1_2_1 0
q_1_2_2 0
q_1_3_0 0
q_1_3_1 0
q_1_3_2 0
q_2_0_0 4.6999998122334347e+01
q_2_0_1 0
q_2_0_2 0
q_2_1_0 0
q_2_1_1 0
q_2_1_2 0
q_2_2_0 1.8776656565473736e-06
q_2_2_1 0
q_2_2_2 0
q_2_3_0 0
q_2_3_1 0
q_2_3_2 0
q_3_0_0 0
q_3_0_1 0
q_3_0_2 0
q_3_1_0 2.8764239844981044e-06
q_3_1_1 0
q_3_1_2 0
q_3_2_0 7.1999994247152031e+01
q_3_2_1 0
q_3_2_2 0
q_3_3_0 2.8764239783270903e-06
q_3_3_1 0
q_3_3_2 0
q_4_0_0 3.2359769825603671e-06
q_4_0_1 8.1000001617988474e+01
q_4_0_2 0
q_4_1_0 8.0999996764023024e+01
q_4_1_1 -1.6179884791966970e-06
q_4_1_2 0
q_4_2_0 0
q_4_2_1 0
q_4_2_2 0
q_4_3_0 0
q_4_3_1 0
q_4_3_2 0
q_5_0_0 1.4999999400745002e+01
q_5_0_1 -5.99254996770438e-07
q_5_0_2 -1.4981374919260988e-07
q_5_1_0 5.9925499677043834e-07
q_5_1_1 0
q_5_1_2 0
q_5_2_0 4.4944124757782889e-07
q_5_2_1 0
q_5_2_2 0
q_5_3_0 0
q_5_3_1 0
q_5_3_2 0
y_0_0_0 1
y_0_0_1 1
y_0_0_2 -9.9875832795073e-09
y_0_1_0 1
y_0_1_1 -1.9975166520858068e-08
y_0_1_2 -3.3291944265024287e-09
y_0_2_0 9.9999996004966685e-01
y_0_2_1 -1.9975166520858068e-08
y_0_2_2 -3.3291944265024287e-09
y_0_3_0 3.99503330323207e-08
y_0_3_1 0
y_0_3_2 0
y_1_0_0 0.999999960049667
y_1_0_1 0
y_1_0_2 -6.6583888530048575e-09
y_1_1_0 0
y_1_1_1 0
y_1_1_2 0
y_1_2_0 4.9937916397536524e-08
y_1_2_1 -1.9975166520858068e-08
y_1_2_2 0
y_1_3_0 0
y_1_3_1 0
y_1_3_2 0
y_2_0_0 0.999999960049667
y_2_0_1 0
y_2_0_2 0
y_2_1_0 0
y_2_1_1 0
y_2_1_2 0
y_2_2_0 3.9950333118029224e-08
y_2_2_1 0
y_2_2_2 0
y_2_3_0 0
y_2_3_1 0
y_2_3_2 0
y_3_0_0 0
y_3_0_1 0
y_3_0_2 0
y_3_1_0 3.9950333118029224e-08
y_3_1_1 0
y_3_1_2 0
y_3_2_0 9.9999992009933381e-01
y_3_2_1 0
y_3_2_2 0
y_3_3_0 3.99503330323207e-08
y_3_3_1 0
y_3_3_2 0
y_4_0_0 3.9950333118029224e-08
y_4_0_1 1.0000000199751664e+00
y_4_0_2 0
y_4_1_0 0.999999960049667
y_4_1_1 -1.9975166409835765e-08
y_4_1_2 0
y_4_2_0 0
y_4_2_1 0
y_4_2_2 0
y_4_3_0 0
y_4_3_1 0
y_4_3_2 0
y_5_0_0 9.9999996004966685e-01
y_5_0_1 -1.9975166559014602e-08
y_5_0_2 -3.3291944265024416e-09
y_5_1_0 3.9950333118029224e-08
y_5_1_1 0
y_5_1_2 -3.3291944265024287e-09
y_5_2_0 2.9962749838521925e-08
y_5_2_1 0
y_5_2_2 -3.3291944265024287e-09
y_5_3_0 0
y_5_3_1 0
y_5_3_2 0
x_0_1_0_0 9.9999996004966685e-01
x_0_1_0_1 0
x_0_1_0_2 -1.3316777706009715e-08
x_0_1_1_0 1.9975166520858068e-08
x_0_1_1_1 0
x_0_1_1_2 0
x_0_1_2_0 4.9937916397536524e-08
x_0_1_2_1 -3.9950333041716135e-08
x_0_1_2_2 0
x_0_1_3_0 0
x_0_1_3_1 0
x_0_1_3_2 0
x_0_2_0_0 0
x_0_2_0_1 0
x_0_2_0_2 0
x_0_2_1_0 0
x_0_2_1_1 0
x_0_2_1_2 0
x_0_2_2_0 0
x_0_2_2_1 0
x_0_2_2_2 0
x_0_2_3_0 0
x_0_2_3_1 0
x_0_2_3_2 0
x_0_3_0_0 0
x_0_3_0_1 0
x_0_3_0_2 0
x_0_3_1_0 3.9950333041716135e-08
x_0_3_1_1 0
x_0_3_1_2 0
x_0_3_2_0 1.9999998401986676e+00
x_0_3_2_1 0
x_0_3_2_2 0
x_0_3_3_0 7.99006660646414e-08
x_0_3_3_1 0
x_0_3_3_2 0
x_0_4_0_0 7.9900666236058449e-08
x_0_4_0_1 2.0000000399503328e+00
x_0_4_0_2 0
x_0_4_1_0 1.9999999200993339e+00
x_0_4_1_1 -3.9950332819671530e-08
x_0_4_1_2 0
x_0_4_2_0 0
x_0_4_2_1 0
x_0_4_2_2 0
x_0_4_3_0 0
x_0_4_3_1 0
x_0_4_3_2 0
x_0_5_0_0 9.9999996004966685e-01
x_0_5_0_1 -3.9950333041716135e-08
x_0_5_0_2 -6.6583888530048831e-09
x_0_5_1_0 1.9975166520858068e-08
x_0_5_1_1 0
x_0_5_1_2 -6.6583888530048575e-09
x_0_5_2_0 2.9962749838521925e-08
x_0_5_2_1 0
x_0_5_2_2 -6.6583888530048575e-09
x_0_5_3_0 0
x_0_5_3_1 0
x_0_5_3_2 0
x_1_2_0_0 9.9999996004966685e-01
x_1_2_0_1 0
x_1_2_0_2 0
x_1_2_1_0 -1.9975166520858068e-08
x_1_2_1_1 0
x_1_2_1_2 0
x_1_2_2_0 4.9937916397536524e-08
x_1_2_2_1 0
x_1_2_2_2 0
x_1_2_3_0 0
x_1_2_3_1 0
x_1_2_3_2 0
x_1_3_0_0 0
x_1_3_0_1 0
x_1_3_0_2 0
x_1_3_1_0 0
x_1_3_1_1 0
x_1_3_1_2 0
x_1_3_2_0 0
x_1_3_2_1 0
x_1_3_2_2 0
x_1_3_3_0 0
x_1_3_3_1 0
x_1_3_3_2 0
x_1_4_0_0 0
x_1_4_0_1 0
x_1_4_0_2 0
x_1_4_1_0 0
x_1_4_1_1 0
x_1_4_1_2 0
x_1_4_2_0 0
x_1_4_2_1 0
x_1_4_2_2 0
x_1_4_3_0 0
x_1_4_3_1 0
x_1_4_3_2 0
x_1_5_0_0 0
x_1_5_0_1 0
x_1_5_0_2 0
x_1_5_1_0 0
x_1_5_1_1 0
x_1_5_1_2 0
x_1_5_2_0 0
x_1_5_2_1 0
x_1_5_2_2 0
x_1_5_3_0 0
x_1_5_3_1 0
x_1_5_3_2 0
x_2_3_0_0 0
x_2_3_0_1 0
x_2_3_0_2 0
x_2_3_1_0 0
x_2_3_1_1 0
x_2_3_1_2 0
x_2_3_2_0 0
x_2_3_2_1 0
x_2_3_2_2 0
x_2_3_3_0 0
x_2_3_3_1 0
x_2_3_3_2 0
x_2_4_0_0 0
x_2_4_0_1 0
x_2_4_0_2 0
x_2_4_1_0 0
x_2_4_1_1 0
x_2_4_1_2 0
x_2_4_2_0 0
x_2_4_2_1 0
x_2_4_2_2 0
x_2_4_3_0 0
x_2_4_3_1 0
x_2_4_3_2 0
x_2_5_0_0 9.9999996004966674e-01
x_2_5_0_1 0
x_2_5_0_2 0
x_2_5_1_0 1.9975166520858068e-08
x_2_5_1_1 0
x_2_5_1_2 0
x_2_5_2_0 2.9962749838521925e-08
x_2_5_2_1 0
x_2_5_2_2 0
x_2_5_3_0 0
x_2_5_3_1 0
x_2_5_3_2 0
x_3_4_0_0 0
x_3_4_0_1 0
x_3_4_0_2 0
x_3_4_1_0 0
x_3_4_1_1 0
x_3_4_1_2 0
x_3_4_2_0 0
x_3_4_2_1 0
x_3_4_2_2 0
x_3_4_3_0 0
x_3_4_3_1 0
x_3_4_3_2 0
x_3_5_0_0 0
x_3_5_0_1 0
x_3_5_0_2 0
x_3_5_1_0 3.9950333194342314e-08
x_3_5_1_1 0
x_3_5_1_2 0
x_3_5_2_0 0
x_3_5_2_1 0
x_3_5_2_2 0
x_3_5_3_0 0
x_3_5_3_1 0
x_3_5_3_2 0
x_4_5_0_0 0
x_4_5_0_1 0
x_4_5_0_2 0
x_4_5_1_0 0
x_4_5_1_1 0
x_4_5_1_2 0
x_4_5_2_0 0
x_4_5_2_1 0
x_4_5_2_2 0
x_4_5_3_0 0
x_4_5_3_1 0
x_4_5_3_2 0
